0 0 0 0
0 1 0 0
0 2 0 0
0 3 0 0
0 4 0 9
0 5 0 9
0 6 0 8
0 7 0 81
0 8 0 66
0 9 0 14
0 10 0 13
0 11 0 21
0 12 0 22
0 13 0 91
0 14 0 8
0 15 0 13
0 16 0 13
0 17 0 18
0 18 0 23
0 19 0 18
0 20 0 31
0 21 0 49
0 22 0 23
0 23 0 33
0 24 0 40
0 25 0 50
0 26 0 57
0 27 0 71
0 28 0 14
0 29 0 23
0 30 0 22
0 31 0 45
0 32 0 30
0 33 0 85
0 34 0 97
0 35 0 33
0 36 0 64
0 37 0 13
0 38 0 37
0 39 0 50
0 40 0 58
0 41 0 31
0 42 0 55
0 43 0 21
0 44 0 106
0 45 0 23
0 46 0 25
0 47 0 78
0 48 0 41
0 49 0 35
0 50 0 60
0 51 0 40
0 52 0 40
0 53 0 53
0 54 0 35
0 55 0 40
0 56 0 69
0 57 0 30
0 58 0 37
0 59 0 97
0 60 0 60
0 61 0 50
0 62 0 55
0 63 0 71
0 64 0 40
0 65 0 98
0 66 0 49
0 67 0 62
0 68 0 60
0 69 0 30
0 70 0 60
0 71 0 94
0 72 0 61
0 73 0 25
0 74 0 61
0 75 0 101
0 76 0 81
0 77 0 48
0 78 0 37
0 79 0 27
0 80 0 53
0 81 0 49
0 82 0 61
0 83 0 95
0 84 0 71
0 85 0 91
0 86 0 69
0 87 0 77
0 88 0 79
0 89 0 17
0 90 0 101
0 91 0 97
0 92 0 67
0 93 0 69
0 94 0 109
0 95 0 71
0 96 0 78
0 97 0 91
0 98 0 102
0 99 0 68
0 100 0 85
0 101 0 102
0 102 0 103
0 103 0 105
0 104 0 114
0 105 0 81
0 106 0 86
0 107 0 86
0 108 0 61
0 109 0 91
0 110 0 100
0 111 0 95
0 112 0 103
0 113 0 105
0 114 0 85
0 115 0 106
0 116 0 110
0 117 0 119
0 118 0 114
0 119 0 120
0 120 0 120
0 121 0 124
